\Problem name: CPLEX solver

Minimize
 obj: 30 x(0,1,0) + 100 x(0,2,0) + 110 x(0,3,0) + 121 x(0,4,0) + 30 x(1,1,0)
      + 100 x(1,2,0) + 110 x(1,3,0) + 121 x(1,4,0) + 30 x(2,1,0) + 100 x(2,2,0)
      + 110 x(2,3,0) + 121 x(2,4,0) + 30 x(3,1,0) + 100 x(3,2,0) + 110 x(3,3,0)
      + 121 x(3,4,0) + 30 x(4,1,0) + 100 x(4,2,0) + 110 x(4,3,0) + 121 x(4,4,0)
      + 30 x(5,1,0) + 100 x(5,2,0) + 110 x(5,3,0) + 121 x(5,4,0) + 30 x(6,1,0)
      + 100 x(6,2,0) + 110 x(6,3,0) + 121 x(6,4,0) + 30 x(7,1,0) + 100 x(7,2,0)
      + 110 x(7,3,0) + 121 x(7,4,0) + 30 x(8,1,0) + 100 x(8,2,0) + 110 x(8,3,0)
      + 121 x(8,4,0) + 30 x(9,1,0) + 100 x(9,2,0) + 110 x(9,3,0) + 121 x(9,4,0)
      + 30 x(10,1,0) + 100 x(10,2,0) + 110 x(10,3,0) + 121 x(10,4,0)
      + 30 x(11,1,0) + 100 x(11,2,0) + 110 x(11,3,0) + 121 x(11,4,0)
      + 30 x(12,1,0) + 100 x(12,2,0) + 110 x(12,3,0) + 121 x(12,4,0)
      + 30 x(13,1,0) + 100 x(13,2,0) + 110 x(13,3,0) + 121 x(13,4,0)
      + 30 x(14,1,0) + 100 x(14,2,0) + 110 x(14,3,0) + 121 x(14,4,0)
      + 30 x(15,1,0) + 100 x(15,2,0) + 110 x(15,3,0) + 121 x(15,4,0)
      + 30 x(16,1,0) + 100 x(16,2,0) + 110 x(16,3,0) + 121 x(16,4,0)
      + 30 x(17,1,0) + 100 x(17,2,0) + 110 x(17,3,0) + 121 x(17,4,0)
      + 30 x(18,1,0) + 100 x(18,2,0) + 110 x(18,3,0) + 121 x(18,4,0)
      + 30 x(19,1,0) + 100 x(19,2,0) + 110 x(19,3,0) + 121 x(19,4,0)
      + 30 x(20,1,0) + 100 x(20,2,0) + 110 x(20,3,0) + 121 x(20,4,0)
      + 30 x(21,1,0) + 100 x(21,2,0) + 110 x(21,3,0) + 121 x(21,4,0)
      + 30 x(22,1,0) + 100 x(22,2,0) + 110 x(22,3,0) + 121 x(22,4,0)
      + 30 x(23,1,0) + 100 x(23,2,0) + 110 x(23,3,0) + 121 x(23,4,0)
      + 30 x(24,1,0) + 100 x(24,2,0) + 110 x(24,3,0) + 121 x(24,4,0)
      + 30 x(25,1,0) + 100 x(25,2,0) + 110 x(25,3,0) + 121 x(25,4,0)
      + 30 x(26,1,0) + 100 x(26,2,0) + 110 x(26,3,0) + 121 x(26,4,0)
      + 30 x(27,1,0) + 100 x(27,2,0) + 110 x(27,3,0) + 121 x(27,4,0)
      + 30 x(28,1,0) + 100 x(28,2,0) + 110 x(28,3,0) + 121 x(28,4,0)
      + 30 x(29,1,0) + 100 x(29,2,0) + 110 x(29,3,0) + 121 x(29,4,0)
      + 2 singletonCheck(0,0) + 2 singletonCheck(0,1) + 2 singletonCheck(0,2)
      + 2 singletonCheck(0,3) + 2 singletonCheck(0,4) + courseRoom(0,0)
      + courseRoom(0,1) + courseRoom(0,2) + courseRoom(0,3) + courseRoom(0,4)
      + id2979
Subject To
 id2086: x(0,0,0) + x(0,1,0) + x(0,2,0) + x(0,3,0) + x(0,4,0) + x(1,0,0)
         + x(1,1,0) + x(1,2,0) + x(1,3,0) + x(1,4,0) + x(2,0,0) + x(2,1,0)
         + x(2,2,0) + x(2,3,0) + x(2,4,0) + x(3,0,0) + x(3,1,0) + x(3,2,0)
         + x(3,3,0) + x(3,4,0) + x(4,0,0) + x(4,1,0) + x(4,2,0) + x(4,3,0)
         + x(4,4,0) + x(5,0,0) + x(5,1,0) + x(5,2,0) + x(5,3,0) + x(5,4,0)
         + x(6,0,0) + x(6,1,0) + x(6,2,0) + x(6,3,0) + x(6,4,0) + x(7,0,0)
         + x(7,1,0) + x(7,2,0) + x(7,3,0) + x(7,4,0) + x(8,0,0) + x(8,1,0)
         + x(8,2,0) + x(8,3,0) + x(8,4,0) + x(9,0,0) + x(9,1,0) + x(9,2,0)
         + x(9,3,0) + x(9,4,0) + x(10,0,0) + x(10,1,0) + x(10,2,0) + x(10,3,0)
         + x(10,4,0) + x(11,0,0) + x(11,1,0) + x(11,2,0) + x(11,3,0)
         + x(11,4,0) + x(12,0,0) + x(12,1,0) + x(12,2,0) + x(12,3,0)
         + x(12,4,0) + x(13,0,0) + x(13,1,0) + x(13,2,0) + x(13,3,0)
         + x(13,4,0) + x(14,0,0) + x(14,1,0) + x(14,2,0) + x(14,3,0)
         + x(14,4,0) + x(15,0,0) + x(15,1,0) + x(15,2,0) + x(15,3,0)
         + x(15,4,0) + x(16,0,0) + x(16,1,0) + x(16,2,0) + x(16,3,0)
         + x(16,4,0) + x(17,0,0) + x(17,1,0) + x(17,2,0) + x(17,3,0)
         + x(17,4,0) + x(18,0,0) + x(18,1,0) + x(18,2,0) + x(18,3,0)
         + x(18,4,0) + x(19,0,0) + x(19,1,0) + x(19,2,0) + x(19,3,0)
         + x(19,4,0) + x(20,0,0) + x(20,1,0) + x(20,2,0) + x(20,3,0)
         + x(20,4,0) + x(21,0,0) + x(21,1,0) + x(21,2,0) + x(21,3,0)
         + x(21,4,0) + x(22,0,0) + x(22,1,0) + x(22,2,0) + x(22,3,0)
         + x(22,4,0) + x(23,0,0) + x(23,1,0) + x(23,2,0) + x(23,3,0)
         + x(23,4,0) + x(24,0,0) + x(24,1,0) + x(24,2,0) + x(24,3,0)
         + x(24,4,0) + x(25,0,0) + x(25,1,0) + x(25,2,0) + x(25,3,0)
         + x(25,4,0) + x(26,0,0) + x(26,1,0) + x(26,2,0) + x(26,3,0)
         + x(26,4,0) + x(27,0,0) + x(27,1,0) + x(27,2,0) + x(27,3,0)
         + x(27,4,0) + x(28,0,0) + x(28,1,0) + x(28,2,0) + x(28,3,0)
         + x(28,4,0) + x(29,0,0) + x(29,1,0) + x(29,2,0) + x(29,3,0)
         + x(29,4,0)  = 6
 id2088: x(0,0,0) + x(0,1,0) + x(0,2,0) + x(0,3,0) + x(0,4,0) <= 5
 id2090: x(1,0,0) + x(1,1,0) + x(1,2,0) + x(1,3,0) + x(1,4,0) <= 5
 id2092: x(2,0,0) + x(2,1,0) + x(2,2,0) + x(2,3,0) + x(2,4,0) <= 5
 id2094: x(3,0,0) + x(3,1,0) + x(3,2,0) + x(3,3,0) + x(3,4,0) <= 5
 id2096: x(4,0,0) + x(4,1,0) + x(4,2,0) + x(4,3,0) + x(4,4,0) <= 5
 id2098: x(5,0,0) + x(5,1,0) + x(5,2,0) + x(5,3,0) + x(5,4,0) <= 5
 id2100: x(6,0,0) + x(6,1,0) + x(6,2,0) + x(6,3,0) + x(6,4,0) <= 5
 id2102: x(7,0,0) + x(7,1,0) + x(7,2,0) + x(7,3,0) + x(7,4,0) <= 5
 id2104: x(8,0,0) + x(8,1,0) + x(8,2,0) + x(8,3,0) + x(8,4,0) <= 5
 id2106: x(9,0,0) + x(9,1,0) + x(9,2,0) + x(9,3,0) + x(9,4,0) <= 5
 id2108: x(10,0,0) + x(10,1,0) + x(10,2,0) + x(10,3,0) + x(10,4,0) <= 5
 id2110: x(11,0,0) + x(11,1,0) + x(11,2,0) + x(11,3,0) + x(11,4,0) <= 5
 id2112: x(12,0,0) + x(12,1,0) + x(12,2,0) + x(12,3,0) + x(12,4,0) <= 5
 id2114: x(13,0,0) + x(13,1,0) + x(13,2,0) + x(13,3,0) + x(13,4,0) <= 5
 id2116: x(14,0,0) + x(14,1,0) + x(14,2,0) + x(14,3,0) + x(14,4,0) <= 5
 id2118: x(15,0,0) + x(15,1,0) + x(15,2,0) + x(15,3,0) + x(15,4,0) <= 5
 id2120: x(16,0,0) + x(16,1,0) + x(16,2,0) + x(16,3,0) + x(16,4,0) <= 5
 id2122: x(17,0,0) + x(17,1,0) + x(17,2,0) + x(17,3,0) + x(17,4,0) <= 5
 id2124: x(18,0,0) + x(18,1,0) + x(18,2,0) + x(18,3,0) + x(18,4,0) <= 5
 id2126: x(19,0,0) + x(19,1,0) + x(19,2,0) + x(19,3,0) + x(19,4,0) <= 5
 id2128: x(20,0,0) + x(20,1,0) + x(20,2,0) + x(20,3,0) + x(20,4,0) <= 5
 id2130: x(21,0,0) + x(21,1,0) + x(21,2,0) + x(21,3,0) + x(21,4,0) <= 5
 id2132: x(22,0,0) + x(22,1,0) + x(22,2,0) + x(22,3,0) + x(22,4,0) <= 5
 id2134: x(23,0,0) + x(23,1,0) + x(23,2,0) + x(23,3,0) + x(23,4,0) <= 5
 id2136: x(24,0,0) + x(24,1,0) + x(24,2,0) + x(24,3,0) + x(24,4,0) <= 5
 id2138: x(25,0,0) + x(25,1,0) + x(25,2,0) + x(25,3,0) + x(25,4,0) <= 5
 id2140: x(26,0,0) + x(26,1,0) + x(26,2,0) + x(26,3,0) + x(26,4,0) <= 5
 id2142: x(27,0,0) + x(27,1,0) + x(27,2,0) + x(27,3,0) + x(27,4,0) <= 5
 id2144: x(28,0,0) + x(28,1,0) + x(28,2,0) + x(28,3,0) + x(28,4,0) <= 5
 id2146: x(29,0,0) + x(29,1,0) + x(29,2,0) + x(29,3,0) + x(29,4,0) <= 5
 id2148: coursePeriod(0,0) <= 5
 id2150: coursePeriod(0,1) <= 5
 id2152: coursePeriod(0,2) <= 5
 id2154: coursePeriod(0,3) <= 5
 id2156: coursePeriod(0,4) <= 5
 id2158: coursePeriod(0,5) <= 5
 id2160: coursePeriod(0,6) <= 5
 id2162: coursePeriod(0,7) <= 5
 id2164: coursePeriod(0,8) <= 5
 id2166: coursePeriod(0,9) <= 5
 id2168: coursePeriod(0,10) <= 5
 id2170: coursePeriod(0,11) <= 5
 id2172: coursePeriod(0,12) <= 5
 id2174: coursePeriod(0,13) <= 5
 id2176: coursePeriod(0,14) <= 5
 id2178: coursePeriod(0,15) <= 5
 id2180: coursePeriod(0,16) <= 5
 id2182: coursePeriod(0,17) <= 5
 id2184: coursePeriod(0,18) <= 5
 id2186: coursePeriod(0,19) <= 5
 id2188: coursePeriod(0,20) <= 5
 id2190: coursePeriod(0,21) <= 5
 id2192: coursePeriod(0,22) <= 5
 id2194: coursePeriod(0,23) <= 5
 id2196: coursePeriod(0,24) <= 5
 id2198: coursePeriod(0,25) <= 5
 id2200: coursePeriod(0,26) <= 5
 id2202: coursePeriod(0,27) <= 5
 id2204: coursePeriod(0,28) <= 5
 id2206: coursePeriod(0,29) <= 5
 id2208: x(0,0,0) <= 1
 id2210: x(0,1,0) <= 1
 id2212: x(0,2,0) <= 2
 id2214: x(0,3,0) <= 1
 id2216: x(0,4,0) <= 1
 id2218: x(1,0,0) <= 1
 id2220: x(1,1,0) <= 1
 id2222: x(1,2,0) <= 2
 id2224: x(1,3,0) <= 1
 id2226: x(1,4,0) <= 1
 id2228: x(2,0,0) <= 1
 id2230: x(2,1,0) <= 1
 id2232: x(2,2,0) <= 2
 id2234: x(2,3,0) <= 1
 id2236: x(2,4,0) <= 1
 id2238: x(3,0,0) <= 1
 id2240: x(3,1,0) <= 1
 id2242: x(3,2,0) <= 2
 id2244: x(3,3,0) <= 1
 id2246: x(3,4,0) <= 1
 id2248: x(4,0,0) <= 1
 id2250: x(4,1,0) <= 1
 id2252: x(4,2,0) <= 2
 id2254: x(4,3,0) <= 1
 id2256: x(4,4,0) <= 1
 id2258: x(5,0,0) <= 1
 id2260: x(5,1,0) <= 1
 id2262: x(5,2,0) <= 2
 id2264: x(5,3,0) <= 1
 id2266: x(5,4,0) <= 1
 id2268: x(6,0,0) <= 1
 id2270: x(6,1,0) <= 1
 id2272: x(6,2,0) <= 2
 id2274: x(6,3,0) <= 1
 id2276: x(6,4,0) <= 1
 id2278: x(7,0,0) <= 1
 id2280: x(7,1,0) <= 1
 id2282: x(7,2,0) <= 2
 id2284: x(7,3,0) <= 1
 id2286: x(7,4,0) <= 1
 id2288: x(8,0,0) <= 1
 id2290: x(8,1,0) <= 1
 id2292: x(8,2,0) <= 2
 id2294: x(8,3,0) <= 1
 id2296: x(8,4,0) <= 1
 id2298: x(9,0,0) <= 1
 id2300: x(9,1,0) <= 1
 id2302: x(9,2,0) <= 2
 id2304: x(9,3,0) <= 1
 id2306: x(9,4,0) <= 1
 id2308: x(10,0,0) <= 1
 id2310: x(10,1,0) <= 1
 id2312: x(10,2,0) <= 2
 id2314: x(10,3,0) <= 1
 id2316: x(10,4,0) <= 1
 id2318: x(11,0,0) <= 1
 id2320: x(11,1,0) <= 1
 id2322: x(11,2,0) <= 2
 id2324: x(11,3,0) <= 1
 id2326: x(11,4,0) <= 1
 id2328: x(12,0,0) <= 1
 id2330: x(12,1,0) <= 1
 id2332: x(12,2,0) <= 2
 id2334: x(12,3,0) <= 1
 id2336: x(12,4,0) <= 1
 id2338: x(13,0,0) <= 1
 id2340: x(13,1,0) <= 1
 id2342: x(13,2,0) <= 2
 id2344: x(13,3,0) <= 1
 id2346: x(13,4,0) <= 1
 id2348: x(14,0,0) <= 1
 id2350: x(14,1,0) <= 1
 id2352: x(14,2,0) <= 2
 id2354: x(14,3,0) <= 1
 id2356: x(14,4,0) <= 1
 id2358: x(15,0,0) <= 1
 id2360: x(15,1,0) <= 1
 id2362: x(15,2,0) <= 2
 id2364: x(15,3,0) <= 1
 id2366: x(15,4,0) <= 1
 id2368: x(16,0,0) <= 1
 id2370: x(16,1,0) <= 1
 id2372: x(16,2,0) <= 2
 id2374: x(16,3,0) <= 1
 id2376: x(16,4,0) <= 1
 id2378: x(17,0,0) <= 1
 id2380: x(17,1,0) <= 1
 id2382: x(17,2,0) <= 2
 id2384: x(17,3,0) <= 1
 id2386: x(17,4,0) <= 1
 id2388: x(18,0,0) <= 1
 id2390: x(18,1,0) <= 1
 id2392: x(18,2,0) <= 2
 id2394: x(18,3,0) <= 1
 id2396: x(18,4,0) <= 1
 id2398: x(19,0,0) <= 1
 id2400: x(19,1,0) <= 1
 id2402: x(19,2,0) <= 2
 id2404: x(19,3,0) <= 1
 id2406: x(19,4,0) <= 1
 id2408: x(20,0,0) <= 1
 id2410: x(20,1,0) <= 1
 id2412: x(20,2,0) <= 2
 id2414: x(20,3,0) <= 1
 id2416: x(20,4,0) <= 1
 id2418: x(21,0,0) <= 1
 id2420: x(21,1,0) <= 1
 id2422: x(21,2,0) <= 2
 id2424: x(21,3,0) <= 1
 id2426: x(21,4,0) <= 1
 id2428: x(22,0,0) <= 1
 id2430: x(22,1,0) <= 1
 id2432: x(22,2,0) <= 2
 id2434: x(22,3,0) <= 1
 id2436: x(22,4,0) <= 1
 id2438: x(23,0,0) <= 1
 id2440: x(23,1,0) <= 1
 id2442: x(23,2,0) <= 2
 id2444: x(23,3,0) <= 1
 id2446: x(23,4,0) <= 1
 id2448: x(24,0,0) <= 1
 id2450: x(24,1,0) <= 1
 id2452: x(24,2,0) <= 2
 id2454: x(24,3,0) <= 1
 id2456: x(24,4,0) <= 1
 id2458: x(25,0,0) <= 1
 id2460: x(25,1,0) <= 1
 id2462: x(25,2,0) <= 2
 id2464: x(25,3,0) <= 1
 id2466: x(25,4,0) <= 1
 id2468: x(26,0,0) <= 1
 id2470: x(26,1,0) <= 1
 id2472: x(26,2,0) <= 2
 id2474: x(26,3,0) <= 1
 id2476: x(26,4,0) <= 1
 id2478: x(27,0,0) <= 1
 id2480: x(27,1,0) <= 1
 id2482: x(27,2,0) <= 2
 id2484: x(27,3,0) <= 1
 id2486: x(27,4,0) <= 1
 id2488: x(28,0,0) <= 1
 id2490: x(28,1,0) <= 1
 id2492: x(28,2,0) <= 2
 id2494: x(28,3,0) <= 1
 id2496: x(28,4,0) <= 1
 id2498: x(29,0,0) <= 1
 id2500: x(29,1,0) <= 1
 id2502: x(29,2,0) <= 2
 id2504: x(29,3,0) <= 1
 id2506: x(29,4,0) <= 1
 id2509: coursePeriod(0,0) - coursePeriod(0,1) - singletonCheck(0,0) <= 0
 id2511: - coursePeriod(0,4) + coursePeriod(0,5) - singletonCheck(0,0) <= 0
 id2513: coursePeriod(0,6) - coursePeriod(0,7) - singletonCheck(0,1) <= 0
 id2515: - coursePeriod(0,10) + coursePeriod(0,11) - singletonCheck(0,1) <= 0
 id2517: coursePeriod(0,12) - coursePeriod(0,13) - singletonCheck(0,2) <= 0
 id2519: - coursePeriod(0,16) + coursePeriod(0,17) - singletonCheck(0,2) <= 0
 id2521: coursePeriod(0,18) - coursePeriod(0,19) - singletonCheck(0,3) <= 0
 id2523: - coursePeriod(0,22) + coursePeriod(0,23) - singletonCheck(0,3) <= 0
 id2525: coursePeriod(0,24) - coursePeriod(0,25) - singletonCheck(0,4) <= 0
 id2527: - coursePeriod(0,28) + coursePeriod(0,29) - singletonCheck(0,4) <= 0
 id2529: - coursePeriod(0,0) + coursePeriod(0,1) - coursePeriod(0,2)
         - singletonCheck(0,0) <= 0
 id2531: - coursePeriod(0,1) + coursePeriod(0,2) - coursePeriod(0,3)
         - singletonCheck(0,0) <= 0
 id2533: - coursePeriod(0,2) + coursePeriod(0,3) - coursePeriod(0,4)
         - singletonCheck(0,0) <= 0
 id2535: - coursePeriod(0,3) + coursePeriod(0,4) - coursePeriod(0,5)
         - singletonCheck(0,0) <= 0
 id2537: - coursePeriod(0,6) + coursePeriod(0,7) - coursePeriod(0,8)
         - singletonCheck(0,1) <= 0
 id2539: - coursePeriod(0,7) + coursePeriod(0,8) - coursePeriod(0,9)
         - singletonCheck(0,1) <= 0
 id2541: - coursePeriod(0,8) + coursePeriod(0,9) - coursePeriod(0,10)
         - singletonCheck(0,1) <= 0
 id2543: - coursePeriod(0,9) + coursePeriod(0,10) - coursePeriod(0,11)
         - singletonCheck(0,1) <= 0
 id2545: - coursePeriod(0,12) + coursePeriod(0,13) - coursePeriod(0,14)
         - singletonCheck(0,2) <= 0
 id2547: - coursePeriod(0,13) + coursePeriod(0,14) - coursePeriod(0,15)
         - singletonCheck(0,2) <= 0
 id2549: - coursePeriod(0,14) + coursePeriod(0,15) - coursePeriod(0,16)
         - singletonCheck(0,2) <= 0
 id2551: - coursePeriod(0,15) + coursePeriod(0,16) - coursePeriod(0,17)
         - singletonCheck(0,2) <= 0
 id2553: - coursePeriod(0,18) + coursePeriod(0,19) - coursePeriod(0,20)
         - singletonCheck(0,3) <= 0
 id2555: - coursePeriod(0,19) + coursePeriod(0,20) - coursePeriod(0,21)
         - singletonCheck(0,3) <= 0
 id2557: - coursePeriod(0,20) + coursePeriod(0,21) - coursePeriod(0,22)
         - singletonCheck(0,3) <= 0
 id2559: - coursePeriod(0,21) + coursePeriod(0,22) - coursePeriod(0,23)
         - singletonCheck(0,3) <= 0
 id2561: - coursePeriod(0,24) + coursePeriod(0,25) - coursePeriod(0,26)
         - singletonCheck(0,4) <= 0
 id2563: - coursePeriod(0,25) + coursePeriod(0,26) - coursePeriod(0,27)
         - singletonCheck(0,4) <= 0
 id2565: - coursePeriod(0,26) + coursePeriod(0,27) - coursePeriod(0,28)
         - singletonCheck(0,4) <= 0
 id2567: - coursePeriod(0,27) + coursePeriod(0,28) - coursePeriod(0,29)
         - singletonCheck(0,4) <= 0
 id2568: - x(0,0,0) + courseRoom(0,0) >= 0
 id2570: - x(1,0,0) + courseRoom(0,0) >= 0
 id2572: - x(2,0,0) + courseRoom(0,0) >= 0
 id2574: - x(3,0,0) + courseRoom(0,0) >= 0
 id2576: - x(4,0,0) + courseRoom(0,0) >= 0
 id2578: - x(5,0,0) + courseRoom(0,0) >= 0
 id2580: - x(6,0,0) + courseRoom(0,0) >= 0
 id2582: - x(7,0,0) + courseRoom(0,0) >= 0
 id2584: - x(8,0,0) + courseRoom(0,0) >= 0
 id2586: - x(9,0,0) + courseRoom(0,0) >= 0
 id2588: - x(10,0,0) + courseRoom(0,0) >= 0
 id2590: - x(11,0,0) + courseRoom(0,0) >= 0
 id2592: - x(12,0,0) + courseRoom(0,0) >= 0
 id2594: - x(13,0,0) + courseRoom(0,0) >= 0
 id2596: - x(14,0,0) + courseRoom(0,0) >= 0
 id2598: - x(15,0,0) + courseRoom(0,0) >= 0
 id2600: - x(16,0,0) + courseRoom(0,0) >= 0
 id2602: - x(17,0,0) + courseRoom(0,0) >= 0
 id2604: - x(18,0,0) + courseRoom(0,0) >= 0
 id2606: - x(19,0,0) + courseRoom(0,0) >= 0
 id2608: - x(20,0,0) + courseRoom(0,0) >= 0
 id2610: - x(21,0,0) + courseRoom(0,0) >= 0
 id2612: - x(22,0,0) + courseRoom(0,0) >= 0
 id2614: - x(23,0,0) + courseRoom(0,0) >= 0
 id2616: - x(24,0,0) + courseRoom(0,0) >= 0
 id2618: - x(25,0,0) + courseRoom(0,0) >= 0
 id2620: - x(26,0,0) + courseRoom(0,0) >= 0
 id2622: - x(27,0,0) + courseRoom(0,0) >= 0
 id2624: - x(28,0,0) + courseRoom(0,0) >= 0
 id2626: - x(29,0,0) + courseRoom(0,0) >= 0
 id2628: - x(0,1,0) + courseRoom(0,1) >= 0
 id2630: - x(1,1,0) + courseRoom(0,1) >= 0
 id2632: - x(2,1,0) + courseRoom(0,1) >= 0
 id2634: - x(3,1,0) + courseRoom(0,1) >= 0
 id2636: - x(4,1,0) + courseRoom(0,1) >= 0
 id2638: - x(5,1,0) + courseRoom(0,1) >= 0
 id2640: - x(6,1,0) + courseRoom(0,1) >= 0
 id2642: - x(7,1,0) + courseRoom(0,1) >= 0
 id2644: - x(8,1,0) + courseRoom(0,1) >= 0
 id2646: - x(9,1,0) + courseRoom(0,1) >= 0
 id2648: - x(10,1,0) + courseRoom(0,1) >= 0
 id2650: - x(11,1,0) + courseRoom(0,1) >= 0
 id2652: - x(12,1,0) + courseRoom(0,1) >= 0
 id2654: - x(13,1,0) + courseRoom(0,1) >= 0
 id2656: - x(14,1,0) + courseRoom(0,1) >= 0
 id2658: - x(15,1,0) + courseRoom(0,1) >= 0
 id2660: - x(16,1,0) + courseRoom(0,1) >= 0
 id2662: - x(17,1,0) + courseRoom(0,1) >= 0
 id2664: - x(18,1,0) + courseRoom(0,1) >= 0
 id2666: - x(19,1,0) + courseRoom(0,1) >= 0
 id2668: - x(20,1,0) + courseRoom(0,1) >= 0
 id2670: - x(21,1,0) + courseRoom(0,1) >= 0
 id2672: - x(22,1,0) + courseRoom(0,1) >= 0
 id2674: - x(23,1,0) + courseRoom(0,1) >= 0
 id2676: - x(24,1,0) + courseRoom(0,1) >= 0
 id2678: - x(25,1,0) + courseRoom(0,1) >= 0
 id2680: - x(26,1,0) + courseRoom(0,1) >= 0
 id2682: - x(27,1,0) + courseRoom(0,1) >= 0
 id2684: - x(28,1,0) + courseRoom(0,1) >= 0
 id2686: - x(29,1,0) + courseRoom(0,1) >= 0
 id2688: - x(0,2,0) + courseRoom(0,2) >= 0
 id2690: - x(1,2,0) + courseRoom(0,2) >= 0
 id2692: - x(2,2,0) + courseRoom(0,2) >= 0
 id2694: - x(3,2,0) + courseRoom(0,2) >= 0
 id2696: - x(4,2,0) + courseRoom(0,2) >= 0
 id2698: - x(5,2,0) + courseRoom(0,2) >= 0
 id2700: - x(6,2,0) + courseRoom(0,2) >= 0
 id2702: - x(7,2,0) + courseRoom(0,2) >= 0
 id2704: - x(8,2,0) + courseRoom(0,2) >= 0
 id2706: - x(9,2,0) + courseRoom(0,2) >= 0
 id2708: - x(10,2,0) + courseRoom(0,2) >= 0
 id2710: - x(11,2,0) + courseRoom(0,2) >= 0
 id2712: - x(12,2,0) + courseRoom(0,2) >= 0
 id2714: - x(13,2,0) + courseRoom(0,2) >= 0
 id2716: - x(14,2,0) + courseRoom(0,2) >= 0
 id2718: - x(15,2,0) + courseRoom(0,2) >= 0
 id2720: - x(16,2,0) + courseRoom(0,2) >= 0
 id2722: - x(17,2,0) + courseRoom(0,2) >= 0
 id2724: - x(18,2,0) + courseRoom(0,2) >= 0
 id2726: - x(19,2,0) + courseRoom(0,2) >= 0
 id2728: - x(20,2,0) + courseRoom(0,2) >= 0
 id2730: - x(21,2,0) + courseRoom(0,2) >= 0
 id2732: - x(22,2,0) + courseRoom(0,2) >= 0
 id2734: - x(23,2,0) + courseRoom(0,2) >= 0
 id2736: - x(24,2,0) + courseRoom(0,2) >= 0
 id2738: - x(25,2,0) + courseRoom(0,2) >= 0
 id2740: - x(26,2,0) + courseRoom(0,2) >= 0
 id2742: - x(27,2,0) + courseRoom(0,2) >= 0
 id2744: - x(28,2,0) + courseRoom(0,2) >= 0
 id2746: - x(29,2,0) + courseRoom(0,2) >= 0
 id2748: - x(0,3,0) + courseRoom(0,3) >= 0
 id2750: - x(1,3,0) + courseRoom(0,3) >= 0
 id2752: - x(2,3,0) + courseRoom(0,3) >= 0
 id2754: - x(3,3,0) + courseRoom(0,3) >= 0
 id2756: - x(4,3,0) + courseRoom(0,3) >= 0
 id2758: - x(5,3,0) + courseRoom(0,3) >= 0
 id2760: - x(6,3,0) + courseRoom(0,3) >= 0
 id2762: - x(7,3,0) + courseRoom(0,3) >= 0
 id2764: - x(8,3,0) + courseRoom(0,3) >= 0
 id2766: - x(9,3,0) + courseRoom(0,3) >= 0
 id2768: - x(10,3,0) + courseRoom(0,3) >= 0
 id2770: - x(11,3,0) + courseRoom(0,3) >= 0
 id2772: - x(12,3,0) + courseRoom(0,3) >= 0
 id2774: - x(13,3,0) + courseRoom(0,3) >= 0
 id2776: - x(14,3,0) + courseRoom(0,3) >= 0
 id2778: - x(15,3,0) + courseRoom(0,3) >= 0
 id2780: - x(16,3,0) + courseRoom(0,3) >= 0
 id2782: - x(17,3,0) + courseRoom(0,3) >= 0
 id2784: - x(18,3,0) + courseRoom(0,3) >= 0
 id2786: - x(19,3,0) + courseRoom(0,3) >= 0
 id2788: - x(20,3,0) + courseRoom(0,3) >= 0
 id2790: - x(21,3,0) + courseRoom(0,3) >= 0
 id2792: - x(22,3,0) + courseRoom(0,3) >= 0
 id2794: - x(23,3,0) + courseRoom(0,3) >= 0
 id2796: - x(24,3,0) + courseRoom(0,3) >= 0
 id2798: - x(25,3,0) + courseRoom(0,3) >= 0
 id2800: - x(26,3,0) + courseRoom(0,3) >= 0
 id2802: - x(27,3,0) + courseRoom(0,3) >= 0
 id2804: - x(28,3,0) + courseRoom(0,3) >= 0
 id2806: - x(29,3,0) + courseRoom(0,3) >= 0
 id2808: - x(0,4,0) + courseRoom(0,4) >= 0
 id2810: - x(1,4,0) + courseRoom(0,4) >= 0
 id2812: - x(2,4,0) + courseRoom(0,4) >= 0
 id2814: - x(3,4,0) + courseRoom(0,4) >= 0
 id2816: - x(4,4,0) + courseRoom(0,4) >= 0
 id2818: - x(5,4,0) + courseRoom(0,4) >= 0
 id2820: - x(6,4,0) + courseRoom(0,4) >= 0
 id2822: - x(7,4,0) + courseRoom(0,4) >= 0
 id2824: - x(8,4,0) + courseRoom(0,4) >= 0
 id2826: - x(9,4,0) + courseRoom(0,4) >= 0
 id2828: - x(10,4,0) + courseRoom(0,4) >= 0
 id2830: - x(11,4,0) + courseRoom(0,4) >= 0
 id2832: - x(12,4,0) + courseRoom(0,4) >= 0
 id2834: - x(13,4,0) + courseRoom(0,4) >= 0
 id2836: - x(14,4,0) + courseRoom(0,4) >= 0
 id2838: - x(15,4,0) + courseRoom(0,4) >= 0
 id2840: - x(16,4,0) + courseRoom(0,4) >= 0
 id2842: - x(17,4,0) + courseRoom(0,4) >= 0
 id2844: - x(18,4,0) + courseRoom(0,4) >= 0
 id2846: - x(19,4,0) + courseRoom(0,4) >= 0
 id2848: - x(20,4,0) + courseRoom(0,4) >= 0
 id2850: - x(21,4,0) + courseRoom(0,4) >= 0
 id2852: - x(22,4,0) + courseRoom(0,4) >= 0
 id2854: - x(23,4,0) + courseRoom(0,4) >= 0
 id2856: - x(24,4,0) + courseRoom(0,4) >= 0
 id2858: - x(25,4,0) + courseRoom(0,4) >= 0
 id2860: - x(26,4,0) + courseRoom(0,4) >= 0
 id2862: - x(27,4,0) + courseRoom(0,4) >= 0
 id2864: - x(28,4,0) + courseRoom(0,4) >= 0
 id2866: - x(29,4,0) + courseRoom(0,4) >= 0
 id2868: x(0,0,0) + x(1,0,0) + x(2,0,0) + x(3,0,0) + x(4,0,0) + x(5,0,0)
         + x(6,0,0) + x(7,0,0) + x(8,0,0) + x(9,0,0) + x(10,0,0) + x(11,0,0)
         + x(12,0,0) + x(13,0,0) + x(14,0,0) + x(15,0,0) + x(16,0,0)
         + x(17,0,0) + x(18,0,0) + x(19,0,0) + x(20,0,0) + x(21,0,0)
         + x(22,0,0) + x(23,0,0) + x(24,0,0) + x(25,0,0) + x(26,0,0)
         + x(27,0,0) + x(28,0,0) + x(29,0,0) - courseRoom(0,0) >= 0
 id2870: x(0,1,0) + x(1,1,0) + x(2,1,0) + x(3,1,0) + x(4,1,0) + x(5,1,0)
         + x(6,1,0) + x(7,1,0) + x(8,1,0) + x(9,1,0) + x(10,1,0) + x(11,1,0)
         + x(12,1,0) + x(13,1,0) + x(14,1,0) + x(15,1,0) + x(16,1,0)
         + x(17,1,0) + x(18,1,0) + x(19,1,0) + x(20,1,0) + x(21,1,0)
         + x(22,1,0) + x(23,1,0) + x(24,1,0) + x(25,1,0) + x(26,1,0)
         + x(27,1,0) + x(28,1,0) + x(29,1,0) - courseRoom(0,1) >= 0
 id2872: x(0,2,0) + x(1,2,0) + x(2,2,0) + x(3,2,0) + x(4,2,0) + x(5,2,0)
         + x(6,2,0) + x(7,2,0) + x(8,2,0) + x(9,2,0) + x(10,2,0) + x(11,2,0)
         + x(12,2,0) + x(13,2,0) + x(14,2,0) + x(15,2,0) + x(16,2,0)
         + x(17,2,0) + x(18,2,0) + x(19,2,0) + x(20,2,0) + x(21,2,0)
         + x(22,2,0) + x(23,2,0) + x(24,2,0) + x(25,2,0) + x(26,2,0)
         + x(27,2,0) + x(28,2,0) + x(29,2,0) - courseRoom(0,2) >= 0
 id2874: x(0,3,0) + x(1,3,0) + x(2,3,0) + x(3,3,0) + x(4,3,0) + x(5,3,0)
         + x(6,3,0) + x(7,3,0) + x(8,3,0) + x(9,3,0) + x(10,3,0) + x(11,3,0)
         + x(12,3,0) + x(13,3,0) + x(14,3,0) + x(15,3,0) + x(16,3,0)
         + x(17,3,0) + x(18,3,0) + x(19,3,0) + x(20,3,0) + x(21,3,0)
         + x(22,3,0) + x(23,3,0) + x(24,3,0) + x(25,3,0) + x(26,3,0)
         + x(27,3,0) + x(28,3,0) + x(29,3,0) - courseRoom(0,3) >= 0
 id2876: x(0,4,0) + x(1,4,0) + x(2,4,0) + x(3,4,0) + x(4,4,0) + x(5,4,0)
         + x(6,4,0) + x(7,4,0) + x(8,4,0) + x(9,4,0) + x(10,4,0) + x(11,4,0)
         + x(12,4,0) + x(13,4,0) + x(14,4,0) + x(15,4,0) + x(16,4,0)
         + x(17,4,0) + x(18,4,0) + x(19,4,0) + x(20,4,0) + x(21,4,0)
         + x(22,4,0) + x(23,4,0) + x(24,4,0) + x(25,4,0) + x(26,4,0)
         + x(27,4,0) + x(28,4,0) + x(29,4,0) - courseRoom(0,4) >= 0
 id2879: - x(0,0,0) - x(1,0,0) - x(2,0,0) - x(3,0,0) - x(4,0,0) - x(5,0,0)
         - x(6,0,0) - x(7,0,0) - x(8,0,0) - x(9,0,0) - x(10,0,0) - x(11,0,0)
         - x(12,0,0) - x(13,0,0) - x(14,0,0) - x(15,0,0) - x(16,0,0)
         - x(17,0,0) - x(18,0,0) - x(19,0,0) - x(20,0,0) - x(21,0,0)
         - x(22,0,0) - x(23,0,0) - x(24,0,0) - x(25,0,0) - x(26,0,0)
         - x(27,0,0) - x(28,0,0) - x(29,0,0) + 6 courseRoom(0,0) >= 0
 id2881: - x(0,1,0) - x(1,1,0) - x(2,1,0) - x(3,1,0) - x(4,1,0) - x(5,1,0)
         - x(6,1,0) - x(7,1,0) - x(8,1,0) - x(9,1,0) - x(10,1,0) - x(11,1,0)
         - x(12,1,0) - x(13,1,0) - x(14,1,0) - x(15,1,0) - x(16,1,0)
         - x(17,1,0) - x(18,1,0) - x(19,1,0) - x(20,1,0) - x(21,1,0)
         - x(22,1,0) - x(23,1,0) - x(24,1,0) - x(25,1,0) - x(26,1,0)
         - x(27,1,0) - x(28,1,0) - x(29,1,0) + 6 courseRoom(0,1) >= 0
 id2883: - x(0,2,0) - x(1,2,0) - x(2,2,0) - x(3,2,0) - x(4,2,0) - x(5,2,0)
         - x(6,2,0) - x(7,2,0) - x(8,2,0) - x(9,2,0) - x(10,2,0) - x(11,2,0)
         - x(12,2,0) - x(13,2,0) - x(14,2,0) - x(15,2,0) - x(16,2,0)
         - x(17,2,0) - x(18,2,0) - x(19,2,0) - x(20,2,0) - x(21,2,0)
         - x(22,2,0) - x(23,2,0) - x(24,2,0) - x(25,2,0) - x(26,2,0)
         - x(27,2,0) - x(28,2,0) - x(29,2,0) + 6 courseRoom(0,2) >= 0
 id2885: - x(0,3,0) - x(1,3,0) - x(2,3,0) - x(3,3,0) - x(4,3,0) - x(5,3,0)
         - x(6,3,0) - x(7,3,0) - x(8,3,0) - x(9,3,0) - x(10,3,0) - x(11,3,0)
         - x(12,3,0) - x(13,3,0) - x(14,3,0) - x(15,3,0) - x(16,3,0)
         - x(17,3,0) - x(18,3,0) - x(19,3,0) - x(20,3,0) - x(21,3,0)
         - x(22,3,0) - x(23,3,0) - x(24,3,0) - x(25,3,0) - x(26,3,0)
         - x(27,3,0) - x(28,3,0) - x(29,3,0) + 6 courseRoom(0,3) >= 0
 id2887: - x(0,4,0) - x(1,4,0) - x(2,4,0) - x(3,4,0) - x(4,4,0) - x(5,4,0)
         - x(6,4,0) - x(7,4,0) - x(8,4,0) - x(9,4,0) - x(10,4,0) - x(11,4,0)
         - x(12,4,0) - x(13,4,0) - x(14,4,0) - x(15,4,0) - x(16,4,0)
         - x(17,4,0) - x(18,4,0) - x(19,4,0) - x(20,4,0) - x(21,4,0)
         - x(22,4,0) - x(23,4,0) - x(24,4,0) - x(25,4,0) - x(26,4,0)
         - x(27,4,0) - x(28,4,0) - x(29,4,0) + 6 courseRoom(0,4) >= 0
 id2888: courseRoom(0,0) + courseRoom(0,1) + courseRoom(0,2) + courseRoom(0,3)
         + courseRoom(0,4) >= 1
 id2889: coursePeriod(0,0)  = 0
 id2891: x(0,0,0)  = 0
 id2893: x(0,1,0)  = 0
 id2895: x(0,2,0)  = 0
 id2897: x(0,3,0)  = 0
 id2899: x(0,4,0)  = 0
 id2901: coursePeriod(0,1)  = 0
 id2903: x(1,0,0)  = 0
 id2905: x(1,1,0)  = 0
 id2907: x(1,2,0)  = 0
 id2909: x(1,3,0)  = 0
 id2911: x(1,4,0)  = 0
 id2913: coursePeriod(0,2)  = 0
 id2915: x(2,0,0)  = 0
 id2917: x(2,1,0)  = 0
 id2919: x(2,2,0)  = 0
 id2921: x(2,3,0)  = 0
 id2923: x(2,4,0)  = 0
 id2925: coursePeriod(0,3)  = 0
 id2927: x(3,0,0)  = 0
 id2929: x(3,1,0)  = 0
 id2931: x(3,2,0)  = 0
 id2933: x(3,3,0)  = 0
 id2935: x(3,4,0)  = 0
 id2937: coursePeriod(0,4)  = 0
 id2939: x(4,0,0)  = 0
 id2941: x(4,1,0)  = 0
 id2943: x(4,2,0)  = 0
 id2945: x(4,3,0)  = 0
 id2947: x(4,4,0)  = 0
 id2949: coursePeriod(0,5)  = 0
 id2951: x(5,0,0)  = 0
 id2953: x(5,1,0)  = 0
 id2955: x(5,2,0)  = 0
 id2957: x(5,3,0)  = 0
 id2959: x(5,4,0)  = 0
 id2962: x(6,0,0) + x(6,1,0) + x(6,2,0) + x(6,3,0) + x(6,4,0) + x(7,0,0)
         + x(7,1,0) + x(7,2,0) + x(7,3,0) + x(7,4,0) + x(8,0,0) + x(8,1,0)
         + x(8,2,0) + x(8,3,0) + x(8,4,0) + x(9,0,0) + x(9,1,0) + x(9,2,0)
         + x(9,3,0) + x(9,4,0) + x(10,0,0) + x(10,1,0) + x(10,2,0) + x(10,3,0)
         + x(10,4,0) + x(11,0,0) + x(11,1,0) + x(11,2,0) + x(11,3,0)
         + x(11,4,0)  = 1
 id2964: x(12,0,0) + x(12,1,0) + x(12,2,0) + x(12,3,0) + x(12,4,0) + x(13,0,0)
         + x(13,1,0) + x(13,2,0) + x(13,3,0) + x(13,4,0) + x(14,0,0)
         + x(14,1,0) + x(14,2,0) + x(14,3,0) + x(14,4,0) + x(15,0,0)
         + x(15,1,0) + x(15,2,0) + x(15,3,0) + x(15,4,0) + x(16,0,0)
         + x(16,1,0) + x(16,2,0) + x(16,3,0) + x(16,4,0) + x(17,0,0)
         + x(17,1,0) + x(17,2,0) + x(17,3,0) + x(17,4,0)  = 2
 id2966: x(18,0,0) + x(18,1,0) + x(18,2,0) + x(18,3,0) + x(18,4,0) + x(19,0,0)
         + x(19,1,0) + x(19,2,0) + x(19,3,0) + x(19,4,0) + x(20,0,0)
         + x(20,1,0) + x(20,2,0) + x(20,3,0) + x(20,4,0) + x(21,0,0)
         + x(21,1,0) + x(21,2,0) + x(21,3,0) + x(21,4,0) + x(22,0,0)
         + x(22,1,0) + x(22,2,0) + x(22,3,0) + x(22,4,0) + x(23,0,0)
         + x(23,1,0) + x(23,2,0) + x(23,3,0) + x(23,4,0)  = 2
 id2968: x(24,0,0) + x(24,1,0) + x(24,2,0) + x(24,3,0) + x(24,4,0) + x(25,0,0)
         + x(25,1,0) + x(25,2,0) + x(25,3,0) + x(25,4,0) + x(26,0,0)
         + x(26,1,0) + x(26,2,0) + x(26,3,0) + x(26,4,0) + x(27,0,0)
         + x(27,1,0) + x(27,2,0) + x(27,3,0) + x(27,4,0) + x(28,0,0)
         + x(28,1,0) + x(28,2,0) + x(28,3,0) + x(28,4,0) + x(29,0,0)
         + x(29,1,0) + x(29,2,0) + x(29,3,0) + x(29,4,0)  = 1
 id2970: coursePeriod(0,6) + coursePeriod(0,7) + coursePeriod(0,8)
         + coursePeriod(0,9) + coursePeriod(0,10) + coursePeriod(0,11)  = 1
 id2972: coursePeriod(0,12) + coursePeriod(0,13) + coursePeriod(0,14)
         + coursePeriod(0,15) + coursePeriod(0,16) + coursePeriod(0,17)  = 2
 id2974: coursePeriod(0,18) + coursePeriod(0,19) + coursePeriod(0,20)
         + coursePeriod(0,21) + coursePeriod(0,22) + coursePeriod(0,23)  = 2
 id2976: coursePeriod(0,24) + coursePeriod(0,25) + coursePeriod(0,26)
         + coursePeriod(0,27) + coursePeriod(0,28) + coursePeriod(0,29)  = 1
Bounds
 0 <= x(0,0,0) <= 1
 0 <= x(0,1,0) <= 1
 0 <= x(0,2,0) <= 1
 0 <= x(0,3,0) <= 1
 0 <= x(0,4,0) <= 1
 0 <= x(1,0,0) <= 1
 0 <= x(1,1,0) <= 1
 0 <= x(1,2,0) <= 1
 0 <= x(1,3,0) <= 1
 0 <= x(1,4,0) <= 1
 0 <= x(2,0,0) <= 1
 0 <= x(2,1,0) <= 1
 0 <= x(2,2,0) <= 1
 0 <= x(2,3,0) <= 1
 0 <= x(2,4,0) <= 1
 0 <= x(3,0,0) <= 1
 0 <= x(3,1,0) <= 1
 0 <= x(3,2,0) <= 1
 0 <= x(3,3,0) <= 1
 0 <= x(3,4,0) <= 1
 0 <= x(4,0,0) <= 1
 0 <= x(4,1,0) <= 1
 0 <= x(4,2,0) <= 1
 0 <= x(4,3,0) <= 1
 0 <= x(4,4,0) <= 1
 0 <= x(5,0,0) <= 1
 0 <= x(5,1,0) <= 1
 0 <= x(5,2,0) <= 1
 0 <= x(5,3,0) <= 1
 0 <= x(5,4,0) <= 1
 0 <= x(6,0,0) <= 1
 0 <= x(6,1,0) <= 1
 0 <= x(6,2,0) <= 1
 0 <= x(6,3,0) <= 1
 0 <= x(6,4,0) <= 1
 0 <= x(7,0,0) <= 1
 0 <= x(7,1,0) <= 1
 0 <= x(7,2,0) <= 1
 0 <= x(7,3,0) <= 1
 0 <= x(7,4,0) <= 1
 0 <= x(8,0,0) <= 1
 0 <= x(8,1,0) <= 1
 0 <= x(8,2,0) <= 1
 0 <= x(8,3,0) <= 1
 0 <= x(8,4,0) <= 1
 0 <= x(9,0,0) <= 1
 0 <= x(9,1,0) <= 1
 0 <= x(9,2,0) <= 1
 0 <= x(9,3,0) <= 1
 0 <= x(9,4,0) <= 1
 0 <= x(10,0,0) <= 1
 0 <= x(10,1,0) <= 1
 0 <= x(10,2,0) <= 1
 0 <= x(10,3,0) <= 1
 0 <= x(10,4,0) <= 1
 0 <= x(11,0,0) <= 1
 0 <= x(11,1,0) <= 1
 0 <= x(11,2,0) <= 1
 0 <= x(11,3,0) <= 1
 0 <= x(11,4,0) <= 1
 0 <= x(12,0,0) <= 1
 0 <= x(12,1,0) <= 1
 0 <= x(12,2,0) <= 1
 0 <= x(12,3,0) <= 1
 0 <= x(12,4,0) <= 1
 0 <= x(13,0,0) <= 1
 0 <= x(13,1,0) <= 1
 0 <= x(13,2,0) <= 1
 0 <= x(13,3,0) <= 1
 0 <= x(13,4,0) <= 1
 0 <= x(14,0,0) <= 1
 0 <= x(14,1,0) <= 1
 0 <= x(14,2,0) <= 1
 0 <= x(14,3,0) <= 1
 0 <= x(14,4,0) <= 1
 0 <= x(15,0,0) <= 1
 0 <= x(15,1,0) <= 1
 0 <= x(15,2,0) <= 1
 0 <= x(15,3,0) <= 1
 0 <= x(15,4,0) <= 1
 0 <= x(16,0,0) <= 1
 0 <= x(16,1,0) <= 1
 0 <= x(16,2,0) <= 1
 0 <= x(16,3,0) <= 1
 0 <= x(16,4,0) <= 1
 0 <= x(17,0,0) <= 1
 0 <= x(17,1,0) <= 1
 0 <= x(17,2,0) <= 1
 0 <= x(17,3,0) <= 1
 0 <= x(17,4,0) <= 1
 0 <= x(18,0,0) <= 1
 0 <= x(18,1,0) <= 1
 0 <= x(18,2,0) <= 1
 0 <= x(18,3,0) <= 1
 0 <= x(18,4,0) <= 1
 0 <= x(19,0,0) <= 1
 0 <= x(19,1,0) <= 1
 0 <= x(19,2,0) <= 1
 0 <= x(19,3,0) <= 1
 0 <= x(19,4,0) <= 1
 0 <= x(20,0,0) <= 1
 0 <= x(20,1,0) <= 1
 0 <= x(20,2,0) <= 1
 0 <= x(20,3,0) <= 1
 0 <= x(20,4,0) <= 1
 0 <= x(21,0,0) <= 1
 0 <= x(21,1,0) <= 1
 0 <= x(21,2,0) <= 1
 0 <= x(21,3,0) <= 1
 0 <= x(21,4,0) <= 1
 0 <= x(22,0,0) <= 1
 0 <= x(22,1,0) <= 1
 0 <= x(22,2,0) <= 1
 0 <= x(22,3,0) <= 1
 0 <= x(22,4,0) <= 1
 0 <= x(23,0,0) <= 1
 0 <= x(23,1,0) <= 1
 0 <= x(23,2,0) <= 1
 0 <= x(23,3,0) <= 1
 0 <= x(23,4,0) <= 1
 0 <= x(24,0,0) <= 1
 0 <= x(24,1,0) <= 1
 0 <= x(24,2,0) <= 1
 0 <= x(24,3,0) <= 1
 0 <= x(24,4,0) <= 1
 0 <= x(25,0,0) <= 1
 0 <= x(25,1,0) <= 1
 0 <= x(25,2,0) <= 1
 0 <= x(25,3,0) <= 1
 0 <= x(25,4,0) <= 1
 0 <= x(26,0,0) <= 1
 0 <= x(26,1,0) <= 1
 0 <= x(26,2,0) <= 1
 0 <= x(26,3,0) <= 1
 0 <= x(26,4,0) <= 1
 0 <= x(27,0,0) <= 1
 0 <= x(27,1,0) <= 1
 0 <= x(27,2,0) <= 1
 0 <= x(27,3,0) <= 1
 0 <= x(27,4,0) <= 1
 0 <= x(28,0,0) <= 1
 0 <= x(28,1,0) <= 1
 0 <= x(28,2,0) <= 1
 0 <= x(28,3,0) <= 1
 0 <= x(28,4,0) <= 1
 0 <= x(29,0,0) <= 1
 0 <= x(29,1,0) <= 1
 0 <= x(29,2,0) <= 1
 0 <= x(29,3,0) <= 1
 0 <= x(29,4,0) <= 1
 0 <= coursePeriod(0,0) <= 1
 0 <= coursePeriod(0,1) <= 1
 0 <= coursePeriod(0,2) <= 1
 0 <= coursePeriod(0,3) <= 1
 0 <= coursePeriod(0,4) <= 1
 0 <= coursePeriod(0,5) <= 1
 0 <= coursePeriod(0,6) <= 1
 0 <= coursePeriod(0,7) <= 1
 0 <= coursePeriod(0,8) <= 1
 0 <= coursePeriod(0,9) <= 1
 0 <= coursePeriod(0,10) <= 1
 0 <= coursePeriod(0,11) <= 1
 0 <= coursePeriod(0,12) <= 1
 0 <= coursePeriod(0,13) <= 1
 0 <= coursePeriod(0,14) <= 1
 0 <= coursePeriod(0,15) <= 1
 0 <= coursePeriod(0,16) <= 1
 0 <= coursePeriod(0,17) <= 1
 0 <= coursePeriod(0,18) <= 1
 0 <= coursePeriod(0,19) <= 1
 0 <= coursePeriod(0,20) <= 1
 0 <= coursePeriod(0,21) <= 1
 0 <= coursePeriod(0,22) <= 1
 0 <= coursePeriod(0,23) <= 1
 0 <= coursePeriod(0,24) <= 1
 0 <= coursePeriod(0,25) <= 1
 0 <= coursePeriod(0,26) <= 1
 0 <= coursePeriod(0,27) <= 1
 0 <= coursePeriod(0,28) <= 1
 0 <= coursePeriod(0,29) <= 1
 0 <= singletonCheck(0,0) <= 1
 0 <= singletonCheck(0,1) <= 1
 0 <= singletonCheck(0,2) <= 1
 0 <= singletonCheck(0,3) <= 1
 0 <= singletonCheck(0,4) <= 1
 0 <= courseRoom(0,0) <= 1
 0 <= courseRoom(0,1) <= 1
 0 <= courseRoom(0,2) <= 1
 0 <= courseRoom(0,3) <= 1
 0 <= courseRoom(0,4) <= 1
      id2979 = -1
Generals
 x(0,0,0)  x(0,1,0)  x(0,2,0)  x(0,3,0)  x(0,4,0)  x(1,0,0)  x(1,1,0) 
 x(1,2,0)  x(1,3,0)  x(1,4,0)  x(2,0,0)  x(2,1,0)  x(2,2,0)  x(2,3,0) 
 x(2,4,0)  x(3,0,0)  x(3,1,0)  x(3,2,0)  x(3,3,0)  x(3,4,0)  x(4,0,0) 
 x(4,1,0)  x(4,2,0)  x(4,3,0)  x(4,4,0)  x(5,0,0)  x(5,1,0)  x(5,2,0) 
 x(5,3,0)  x(5,4,0)  x(6,0,0)  x(6,1,0)  x(6,2,0)  x(6,3,0)  x(6,4,0) 
 x(7,0,0)  x(7,1,0)  x(7,2,0)  x(7,3,0)  x(7,4,0)  x(8,0,0)  x(8,1,0) 
 x(8,2,0)  x(8,3,0)  x(8,4,0)  x(9,0,0)  x(9,1,0)  x(9,2,0)  x(9,3,0) 
 x(9,4,0)  x(10,0,0)  x(10,1,0)  x(10,2,0)  x(10,3,0)  x(10,4,0)  x(11,0,0) 
 x(11,1,0)  x(11,2,0)  x(11,3,0)  x(11,4,0)  x(12,0,0)  x(12,1,0)  x(12,2,0) 
 x(12,3,0)  x(12,4,0)  x(13,0,0)  x(13,1,0)  x(13,2,0)  x(13,3,0)  x(13,4,0) 
 x(14,0,0)  x(14,1,0)  x(14,2,0)  x(14,3,0)  x(14,4,0)  x(15,0,0)  x(15,1,0) 
 x(15,2,0)  x(15,3,0)  x(15,4,0)  x(16,0,0)  x(16,1,0)  x(16,2,0)  x(16,3,0) 
 x(16,4,0)  x(17,0,0)  x(17,1,0)  x(17,2,0)  x(17,3,0)  x(17,4,0)  x(18,0,0) 
 x(18,1,0)  x(18,2,0)  x(18,3,0)  x(18,4,0)  x(19,0,0)  x(19,1,0)  x(19,2,0) 
 x(19,3,0)  x(19,4,0)  x(20,0,0)  x(20,1,0)  x(20,2,0)  x(20,3,0)  x(20,4,0) 
 x(21,0,0)  x(21,1,0)  x(21,2,0)  x(21,3,0)  x(21,4,0)  x(22,0,0)  x(22,1,0) 
 x(22,2,0)  x(22,3,0)  x(22,4,0)  x(23,0,0)  x(23,1,0)  x(23,2,0)  x(23,3,0) 
 x(23,4,0)  x(24,0,0)  x(24,1,0)  x(24,2,0)  x(24,3,0)  x(24,4,0)  x(25,0,0) 
 x(25,1,0)  x(25,2,0)  x(25,3,0)  x(25,4,0)  x(26,0,0)  x(26,1,0)  x(26,2,0) 
 x(26,3,0)  x(26,4,0)  x(27,0,0)  x(27,1,0)  x(27,2,0)  x(27,3,0)  x(27,4,0) 
 x(28,0,0)  x(28,1,0)  x(28,2,0)  x(28,3,0)  x(28,4,0)  x(29,0,0)  x(29,1,0) 
 x(29,2,0)  x(29,3,0)  x(29,4,0)  coursePeriod(0,0)  coursePeriod(0,1) 
 coursePeriod(0,2)  coursePeriod(0,3)  coursePeriod(0,4)  coursePeriod(0,5) 
 coursePeriod(0,6)  coursePeriod(0,7)  coursePeriod(0,8)  coursePeriod(0,9) 
 coursePeriod(0,10)  coursePeriod(0,11)  coursePeriod(0,12) 
 coursePeriod(0,13)  coursePeriod(0,14)  coursePeriod(0,15) 
 coursePeriod(0,16)  coursePeriod(0,17)  coursePeriod(0,18) 
 coursePeriod(0,19)  coursePeriod(0,20)  coursePeriod(0,21) 
 coursePeriod(0,22)  coursePeriod(0,23)  coursePeriod(0,24) 
 coursePeriod(0,25)  coursePeriod(0,26)  coursePeriod(0,27) 
 coursePeriod(0,28)  coursePeriod(0,29)  singletonCheck(0,0) 
 singletonCheck(0,1)  singletonCheck(0,2)  singletonCheck(0,3) 
 singletonCheck(0,4)  courseRoom(0,0)  courseRoom(0,1)  courseRoom(0,2) 
 courseRoom(0,3)  courseRoom(0,4) 
End
